
  17    4
  10   10   10   10

   0   0   0   0   0   6 2 3 4 5 6 10 
   7  10  10  10  10   4 16 9 8 7 
   6  10  10  10  10   3 16 11 8 
   8  10  10  10  10   2 16 7 
   2  10  10  10  10   1 7 
   5  10  10  10  10   1 7 
   7  10  10  10  10   4 15 14 13 11 
   5  10  10  10  10   4 15 14 13 12 
   9  10  10  10  10   3 14 13 11 
   9  10  10  10  10   2 13 11 
   1  10  10  10  10   1 12 
   7  10  10  10  10   1 17
   2  10  10  10  10   1 17
   4  10  10  10  10   1 17
   9  10  10  10  10   1 17
   1  10  10  10  10   1 17
   0   0   0   0   0   0 
